
===== New CPLEX run =====
Instance: /home/yorig/tuner/mpils-tests/instances/miplib/easy/lotsize.mps
Config: /scratch/yorig/mpils-results-grid-ticks-10000/easy/16proc/seed-9/4_lotsize_seed-9_20260425_202405/iterated_local_search/run_2_worker_6/ils_config_4021950620201420997.prm
========================

Selected objective sense:  MINIMIZE
Selected objective  name:  R1921
Selected RHS        name:  B
Selected bound      name:  BOUND
Version identifier: 22.1.2.0 | 2024-11-26 | 0edbb82fd
CPXPARAM_Threads                                 8
CPXPARAM_Parallel                                1
CPXPARAM_MIP_Cuts_Cliques                        3
CPXPARAM_MIP_Strategy_VariableSelect             -1
CPXPARAM_MIP_Cuts_GUBCovers                      2
CPXPARAM_MIP_Limits_GomoryCand                   150
CPXPARAM_MIP_Cuts_Gomory                         1
CPXPARAM_MIP_Cuts_PathCut                        -1
CPXPARAM_MIP_Cuts_MIRCut                         -1
CPXPARAM_MIP_Cuts_Disjunctive                    -1
CPXPARAM_Emphasis_MIP                            5
CPXPARAM_DetTimeLimit                            10000
Tried aggregator 1 time.
MIP Presolve eliminated 595 rows and 0 columns.
MIP Presolve added 1190 rows and 0 columns.
MIP Presolve modified 10 coefficients.
Reduced MIP has 2515 rows, 2985 columns, and 7755 nonzeros.
Reduced MIP has 1195 binaries, 0 generals, 0 SOSs, and 0 indicators.
Presolve time = 0.00 sec. (4.53 ticks)
Probing fixed 0 vars, tightened 5487 bounds.
Probing time = 0.01 sec. (18.38 ticks)
Tried aggregator 2 times.
Detecting symmetries...
MIP Presolve modified 1206 coefficients.
Aggregator did 10 substitutions.
Reduced MIP has 2505 rows, 2975 columns, and 7735 nonzeros.
Reduced MIP has 1195 binaries, 0 generals, 0 SOSs, and 0 indicators.
Presolve time = 0.00 sec. (6.66 ticks)
Probing fixed 0 vars, tightened 2401 bounds.
Probing time = 0.00 sec. (6.41 ticks)
Clique table members: 190.
MIP emphasis: heuristic.
MIP search method: dynamic search.
Parallel mode: deterministic, using up to 8 threads.
Root relaxation solution time = 0.01 sec. (9.71 ticks)

        Nodes                                         Cuts/
   Node  Left     Objective  IInf  Best Integer    Best Bound    ItCnt     Gap

      0     0   348385.3466   472                 348385.3466      882         
*     0+    0                       1.40386e+07   348385.3466            97.52%
*     0+    0                       1.01740e+07   348385.3466            96.58%
*     0+    0                      7973370.0000   348385.3466            95.63%
      0     0   535377.7050   540  7973370.0000     Cuts: 726     1971   87.18%
      0     0   784789.9328   591  7973370.0000     Cuts: 726     2872   86.98%
      0     0  1011754.8217   622  7973370.0000     Cuts: 726     3770   86.74%
*     0+    0                      7301376.0000  1057486.0451            85.52%
      0     0  -1.00000e+75     0  7301376.0000  1057486.0451     3770   85.52%
      0     0  1102281.1218   641  7301376.0000     Cuts: 726     4428   84.90%
*     0+    0                      7098135.0000  1102281.1218            84.47%
      0     0  1125938.3427   629  7098135.0000     Cuts: 441     4858   84.14%
Detecting symmetries...
      0     0  1136247.5485   663  7098135.0000     Cuts: 306     5172   83.99%
      0     0  1144224.0096   688  7098135.0000     Cuts: 268     5426   83.88%
      0     0  1149603.4778   688  7098135.0000     Cuts: 238     5685   83.80%
      0     0  1153423.9856   710  7098135.0000     Cuts: 210     5872   83.75%
      0     0  1156330.3914   709  7098135.0000     Cuts: 151     6029   83.71%
      0     0  1159694.7492   730  7098135.0000     Cuts: 127     6168   83.66%
      0     0  1161091.0547   752  7098135.0000      Cuts: 71     6272   83.64%
      0     0  1161814.1162   732  7098135.0000      Cuts: 76     6374   83.63%
      0     0  1163157.6340   762  7098135.0000      Cuts: 66     6473   83.61%
      0     0  1164358.2882   739  7098135.0000      Cuts: 70     6565   83.60%
      0     0  1165876.8555   749  7098135.0000      Cuts: 81     6681   83.57%
      0     0  1166453.2405   764  7098135.0000      Cuts: 99     6772   83.57%
      0     0  1166904.2404   767  7098135.0000      Cuts: 43     6847   83.56%
      0     0  1167524.8101   758  7098135.0000      Cuts: 93     6927   83.55%
      0     0  1168057.5331   780  7098135.0000      Cuts: 81     7005   83.54%
      0     0  1169165.1958   770  7098135.0000      Cuts: 57     7098   83.53%
      0     0  1169558.1692   771  7098135.0000      Cuts: 46     7157   83.52%
      0     0  1169985.3722   784  7098135.0000      Cuts: 34     7217   83.52%
      0     0  1170562.8404   772  7098135.0000      Cuts: 32     7269   83.51%
      0     0  1170805.2360   761  7098135.0000      Cuts: 26     7319   83.51%
      0     0  1170923.8672   762  7098135.0000      Cuts: 36     7352   83.50%
*     0+    0                      3583306.0000  1170923.8672            67.32%
*     0+    0                      2723390.0000  1170923.8672            57.00%
*     0+    0                      2685623.0000  1170923.8672            56.40%
*     0+    0                      2572443.0000  1170923.8672            54.48%
*     0+    0                      2561987.0000  1170923.8672            54.30%
*     0+    0                      2558963.0000  1170923.8672            54.24%
      0     0  -1.00000e+75     0  2558963.0000  1170923.8672     7352   54.24%
*     0+    0                      2456861.0000  1170923.8672            52.34%
*     0+    0                      2229422.0000  1170923.8672            47.48%
*     0+    0                      2211786.0000  1170923.8672            47.06%
*     0+    0                      2205136.0000  1170923.8672            46.90%
*     0+    0                      2167676.0000  1170923.8672            45.98%
*     0+    0                      2082463.0000  1170923.8672            43.77%
*     0+    0                      2080109.0000  1170923.8672            43.71%
*     0+    0                      1986089.0000  1170923.8672            41.04%
*     0+    0                      1915558.0000  1170923.8672            38.87%
*     0+    0                      1886217.0000  1170923.8672            37.92%
*     0+    0                      1805560.0000  1170923.8672            35.15%
*     0+    0                      1803597.0000  1170923.8672            35.08%
*     0+    0                      1802035.0000  1170923.8672            35.02%
*     0+    0                      1799330.0000  1170923.8672            34.92%
*     0+    0                      1798824.0000  1170923.8672            34.91%
*     0+    0                      1795932.0000  1170923.8672            34.80%
*     0+    0                      1794044.0000  1170923.8672            34.73%
*     0+    0                      1793996.0000  1170923.8672            34.73%
*     0+    0                      1726877.0000  1170923.8672            32.19%
*     0+    0                      1680493.0000  1170923.8672            30.32%
*     0+    0                      1679610.0000  1170923.8672            30.29%
*     0+    0                      1668558.0000  1170923.8672            29.82%
      0     0  -1.00000e+75     0  1668558.0000  1170923.8672     7352   29.82%

GUB cover cuts applied:  0
Clique cuts applied:  0
Cover cuts applied:  17
Implied bound cuts applied:  26
Flow cuts applied:  841
Mixed integer rounding cuts applied:  509
Multi commodity flow cuts applied:  70
Gomory fractional cuts applied:  11

Root node processing (before b&c):
  Real time             =    6.23 sec. (10010.12 ticks)
Parallel b&c, 8 threads:
  Real time             =    0.00 sec. (0.00 ticks)
  Sync time (average)   =    0.00 sec.
  Wait time (average)   =    0.00 sec.
                          ------------
Total (root+branch&cut) =    6.23 sec. (10010.12 ticks)
Gap: 29.82%
Upper bound: 1.66856e+06
Lower bound: 1.17092e+06
End of CPLEX run. Time: 6.23959 seconds

===== New CPLEX run =====
Instance: /home/yorig/tuner/mpils-tests/instances/miplib/easy/lotsize.mps
Config: /scratch/yorig/mpils-results-grid-ticks-10000/easy/16proc/seed-9/4_lotsize_seed-9_20260425_202405/iterated_local_search/run_2_worker_6/ils_config_10328257061360227137.prm
========================

Selected objective sense:  MINIMIZE
Selected objective  name:  R1921
Selected RHS        name:  B
Selected bound      name:  BOUND
Version identifier: 22.1.2.0 | 2024-11-26 | 0edbb82fd
CPXPARAM_Threads                                 8
CPXPARAM_Parallel                                1
CPXPARAM_MIP_Cuts_Cliques                        3
CPXPARAM_MIP_Strategy_VariableSelect             -1
CPXPARAM_MIP_Cuts_GUBCovers                      2
CPXPARAM_MIP_Limits_GomoryCand                   100
CPXPARAM_MIP_Cuts_Gomory                         1
CPXPARAM_MIP_Cuts_PathCut                        -1
CPXPARAM_MIP_Cuts_MIRCut                         -1
CPXPARAM_MIP_Cuts_Disjunctive                    -1
CPXPARAM_Emphasis_MIP                            5
CPXPARAM_DetTimeLimit                            10000
Tried aggregator 1 time.
MIP Presolve eliminated 595 rows and 0 columns.
MIP Presolve added 1190 rows and 0 columns.
MIP Presolve modified 10 coefficients.
Reduced MIP has 2515 rows, 2985 columns, and 7755 nonzeros.
Reduced MIP has 1195 binaries, 0 generals, 0 SOSs, and 0 indicators.
Presolve time = 0.00 sec. (4.53 ticks)
Probing fixed 0 vars, tightened 5487 bounds.
Probing time = 0.01 sec. (18.38 ticks)
Tried aggregator 2 times.
Detecting symmetries...
MIP Presolve modified 1206 coefficients.
Aggregator did 10 substitutions.
Reduced MIP has 2505 rows, 2975 columns, and 7735 nonzeros.
Reduced MIP has 1195 binaries, 0 generals, 0 SOSs, and 0 indicators.
Presolve time = 0.00 sec. (6.66 ticks)
Probing fixed 0 vars, tightened 2401 bounds.
Probing time = 0.00 sec. (6.41 ticks)
Clique table members: 190.
MIP emphasis: heuristic.
MIP search method: dynamic search.
Parallel mode: deterministic, using up to 8 threads.
Root relaxation solution time = 0.01 sec. (9.71 ticks)

        Nodes                                         Cuts/
   Node  Left     Objective  IInf  Best Integer    Best Bound    ItCnt     Gap

      0     0   348385.3466   472                 348385.3466      882         
*     0+    0                       1.40386e+07   348385.3466            97.52%
*     0+    0                       1.01740e+07   348385.3466            96.58%
*     0+    0                      7973370.0000   348385.3466            95.63%
      0     0   546511.8535   507  7973370.0000     Cuts: 726     1937   87.36%
      0     0   795780.2707   575  7973370.0000     Cuts: 726     2809   87.11%
      0     0  1009576.5905   630  7973370.0000     Cuts: 726     3774   86.80%
      0     0  1096027.0145   629  7973370.0000     Cuts: 726     4406   86.25%
      0     0  1121976.9579   651  7973370.0000     Cuts: 415     4838   85.93%
Detecting symmetries...
      0     0  1132376.5922   661  7973370.0000     Cuts: 310     5134   85.80%
      0     0  1138622.5851   710  7973370.0000     Cuts: 257     5351   85.72%
      0     0  1143196.8262   688  7973370.0000     Cuts: 197     5551   85.66%
      0     0  1147041.4634   714  7973370.0000     Cuts: 140     5759   85.61%
      0     0  1148451.7463   716  7973370.0000     Cuts: 121     5879   85.60%
      0     0  1150556.7459   733  7973370.0000     Cuts: 135     6000   85.57%
      0     0  1152970.7864   760  7973370.0000     Cuts: 119     6210   85.54%
      0     0  1155333.8829   753  7973370.0000      Cuts: 89     6372   85.51%
      0     0  1157755.3002   765  7973370.0000     Cuts: 102     6589   85.48%
      0     0  1158683.1440   779  7973370.0000      Cuts: 88     6690   85.47%
      0     0  1159174.4995   768  7973370.0000      Cuts: 62     6771   85.46%
      0     0  1159712.6113   765  7973370.0000      Cuts: 53     6863   85.46%
      0     0  1160322.3877   776  7973370.0000      Cuts: 71     6954   85.45%
      0     0  1160832.0812   772  7973370.0000      Cuts: 68     7041   85.44%
      0     0  1161619.7633   774  7973370.0000      Cuts: 34     7128   85.43%
      0     0  1162308.0960   786  7973370.0000      Cuts: 78     7209   85.42%
      0     0  1163339.7822   780  7973370.0000      Cuts: 46     7283   85.41%
      0     0  1163724.8774   805  7973370.0000      Cuts: 41     7370   85.40%
      0     0  1164548.7929   794  7973370.0000      Cuts: 42     7463   85.39%
      0     0  1165134.3643   800  7973370.0000      Cuts: 35     7540   85.39%
      0     0  1165818.9304   811  7973370.0000      Cuts: 25     7606   85.38%
      0     0  1166540.4208   817  7973370.0000      Cuts: 26     7704   85.37%
      0     0  1166900.1037   801  7973370.0000      Cuts: 66     7794   85.37%
      0     0  1167020.6671   790  7973370.0000      Cuts: 25     7843   85.36%
      0     0  1167098.9103   805  7973370.0000      Cuts: 19     7877   85.36%
*     0+    0                      4654889.0000  1167098.9103            74.93%
*     0+    0                      4223513.0000  1167098.9103            72.37%
*     0+    0                      3426476.0000  1167098.9103            65.94%
*     0+    0                      3269352.0000  1167098.9103            64.30%
*     0+    0                      3225388.0000  1167098.9103            63.82%
      0     0  -1.00000e+75     0  3225388.0000  1167098.9103     7877   63.82%
*     0+    0                      3193132.0000  1167098.9103            63.45%
*     0+    0                      2909919.0000  1167098.9103            59.89%
*     0+    0                      2823666.0000  1167098.9103            58.67%
*     0+    0                      2786049.0000  1167098.9103            58.11%
*     0+    0                      2728734.0000  1167098.9103            57.23%
*     0+    0                      2473614.0000  1167098.9103            52.82%
*     0+    0                      2446989.0000  1167098.9103            52.30%
*     0+    0                      2430523.0000  1167098.9103            51.98%
*     0+    0                      2399758.0000  1167098.9103            51.37%
*     0+    0                      2351406.0000  1167098.9103            50.37%
*     0+    0                      2281602.0000  1167098.9103            48.85%
*     0+    0                      2275546.0000  1167098.9103            48.71%
*     0+    0                      2265995.0000  1167098.9103            48.50%
*     0+    0                      2262615.0000  1167098.9103            48.42%
*     0+    0                      2248338.0000  1167098.9103            48.09%
*     0+    0                      2247987.0000  1167098.9103            48.08%
*     0+    0                      2247891.0000  1167098.9103            48.08%
*     0+    0                      2243161.0000  1167098.9103            47.97%
      0     0  -1.00000e+75     0  2243161.0000  1167098.9103     7877   47.97%

GUB cover cuts applied:  0
Clique cuts applied:  1
Cover cuts applied:  17
Implied bound cuts applied:  23
Flow cuts applied:  890
Mixed integer rounding cuts applied:  515
Multi commodity flow cuts applied:  61
Gomory fractional cuts applied:  6

Root node processing (before b&c):
  Real time             =    6.02 sec. (10011.18 ticks)
Parallel b&c, 8 threads:
  Real time             =    0.00 sec. (0.00 ticks)
  Sync time (average)   =    0.00 sec.
  Wait time (average)   =    0.00 sec.
                          ------------
Total (root+branch&cut) =    6.02 sec. (10011.18 ticks)
Gap: 47.97%
Upper bound: 2.24316e+06
Lower bound: 1.1671e+06
End of CPLEX run. Time: 6.02491 seconds

===== New CPLEX run =====
Instance: /home/yorig/tuner/mpils-tests/instances/miplib/easy/lotsize.mps
Config: /scratch/yorig/mpils-results-grid-ticks-10000/easy/16proc/seed-9/4_lotsize_seed-9_20260425_202405/iterated_local_search/run_2_worker_6/ils_config_13602471498127777681.prm
========================

Selected objective sense:  MINIMIZE
Selected objective  name:  R1921
Selected RHS        name:  B
Selected bound      name:  BOUND
Version identifier: 22.1.2.0 | 2024-11-26 | 0edbb82fd
CPXPARAM_Threads                                 8
CPXPARAM_Parallel                                1
CPXPARAM_MIP_Cuts_Cliques                        3
CPXPARAM_MIP_Strategy_VariableSelect             -1
CPXPARAM_MIP_Cuts_GUBCovers                      2
CPXPARAM_MIP_Limits_GomoryCand                   10
CPXPARAM_MIP_Cuts_Gomory                         1
CPXPARAM_MIP_Cuts_PathCut                        -1
CPXPARAM_MIP_Cuts_MIRCut                         -1
CPXPARAM_MIP_Cuts_Disjunctive                    -1
CPXPARAM_Emphasis_MIP                            5
CPXPARAM_DetTimeLimit                            10000
Tried aggregator 1 time.
MIP Presolve eliminated 595 rows and 0 columns.
MIP Presolve added 1190 rows and 0 columns.
MIP Presolve modified 10 coefficients.
Reduced MIP has 2515 rows, 2985 columns, and 7755 nonzeros.
Reduced MIP has 1195 binaries, 0 generals, 0 SOSs, and 0 indicators.
Presolve time = 0.00 sec. (4.53 ticks)
Probing fixed 0 vars, tightened 5487 bounds.
Probing time = 0.01 sec. (18.38 ticks)
Tried aggregator 2 times.
Detecting symmetries...
MIP Presolve modified 1206 coefficients.
Aggregator did 10 substitutions.
Reduced MIP has 2505 rows, 2975 columns, and 7735 nonzeros.
Reduced MIP has 1195 binaries, 0 generals, 0 SOSs, and 0 indicators.
Presolve time = 0.00 sec. (6.66 ticks)
Probing fixed 0 vars, tightened 2401 bounds.
Probing time = 0.00 sec. (6.41 ticks)
Clique table members: 190.
MIP emphasis: heuristic.
MIP search method: dynamic search.
Parallel mode: deterministic, using up to 8 threads.
Root relaxation solution time = 0.01 sec. (9.71 ticks)

        Nodes                                         Cuts/
   Node  Left     Objective  IInf  Best Integer    Best Bound    ItCnt     Gap

      0     0   348385.3466   472                 348385.3466      882         
*     0+    0                       1.40386e+07   348385.3466            97.52%
*     0+    0                       1.01740e+07   348385.3466            96.58%
*     0+    0                      7973370.0000   348385.3466            95.63%
      0     0   574079.6078   450  7973370.0000     Cuts: 726     1850   87.25%
      0     0   836714.2044   577  7973370.0000     Cuts: 726     2652   87.11%
      0     0  1046967.2783   607  7973370.0000     Cuts: 726     3426   86.86%
      0     0  1106090.8852   628  7973370.0000     Cuts: 573     3957   86.13%
      0     0  1121577.1828   659  7973370.0000     Cuts: 398     4285   85.93%
Detecting symmetries...
      0     0  1130979.8974   679  7973370.0000     Cuts: 249     4527   85.82%
*     0+    0                      2043076.0000  1130979.8974            44.64%
      0     0  1137454.2162   710  2043076.0000     Cuts: 233     4771   44.33%
      0     0  1141887.7608   696  2043076.0000     Cuts: 219     4986   44.11%
      0     0  1145401.3403   720  2043076.0000     Cuts: 150     5143   43.94%
      0     0  1148755.7327   751  2043076.0000     Cuts: 162     5312   43.77%
      0     0  1150775.8993   760  2043076.0000     Cuts: 128     5474   43.67%
      0     0  1152741.9380   738  2043076.0000     Cuts: 109     5606   43.58%
      0     0  1154097.2184   745  2043076.0000     Cuts: 127     5734   43.51%
      0     0  1155522.0782   757  2043076.0000      Cuts: 98     5870   43.44%
      0     0  1156549.4231   736  2043076.0000      Cuts: 45     5967   43.39%
      0     0  1157845.4236   766  2043076.0000      Cuts: 66     6084   43.33%
      0     0  1158789.6765   783  2043076.0000      Cuts: 84     6170   43.28%
      0     0  1159602.1451   760  2043076.0000      Cuts: 49     6254   43.24%
      0     0  1160569.0316   760  2043076.0000      Cuts: 43     6348   43.20%
      0     0  1161102.7496   780  2043076.0000      Cuts: 51     6425   43.17%
      0     0  1161784.9942   773  2043076.0000      Cuts: 55     6507   43.14%
      0     0  1162308.4300   780  2043076.0000      Cuts: 60     6610   43.11%
      0     0  1162966.6027   786  2043076.0000     Cuts: 113     6736   43.08%
      0     0  1163814.8443   772  2043076.0000      Cuts: 64     6842   43.04%
      0     0  1164643.3477   764  2043076.0000      Cuts: 52     6941   43.00%
      0     0  1164947.0086   770  2043076.0000      Cuts: 70     7038   42.98%
      0     0  1165405.2615   762  2043076.0000      Cuts: 51     7120   42.96%
      0     0  1165813.4508   772  2043076.0000      Cuts: 42     7201   42.94%
      0     0  1165928.7057   769  2043076.0000      Cuts: 45     7247   42.93%
      0     0  1166059.7973   772  2043076.0000      Cuts: 38     7288   42.93%
*     0+    0                      1995537.0000  1166059.7973            41.57%
*     0+    0                      1819613.0000  1166059.7973            35.92%
*     0+    0                      1731411.0000  1166059.7973            32.65%
      0     0  -1.00000e+75     0  1731411.0000  1166059.7973     7288   32.65%
*     0+    0                      1707814.0000  1166059.7973            31.72%
*     0+    0                      1707796.0000  1166059.7973            31.72%
*     0+    0                      1615428.0000  1166059.7973            27.82%
*     0+    0                      1592640.0000  1166059.7973            26.78%
*     0+    0                      1588324.0000  1166059.7973            26.59%
*     0+    0                      1585555.0000  1166059.7973            26.46%
*     0+    0                      1580287.0000  1166059.7973            26.21%
      0     0  -1.00000e+75     0  1580287.0000  1166059.7973     7288   26.21%

GUB cover cuts applied:  0
Clique cuts applied:  1
Cover cuts applied:  15
Implied bound cuts applied:  17
Flow cuts applied:  904
Mixed integer rounding cuts applied:  516
Multi commodity flow cuts applied:  69
Gomory fractional cuts applied:  0

Root node processing (before b&c):
  Real time             =    6.07 sec. (10010.96 ticks)
Parallel b&c, 8 threads:
  Real time             =    0.00 sec. (0.00 ticks)
  Sync time (average)   =    0.00 sec.
  Wait time (average)   =    0.00 sec.
                          ------------
Total (root+branch&cut) =    6.07 sec. (10010.96 ticks)
Gap: 26.21%
Upper bound: 1.58029e+06
Lower bound: 1.16606e+06
End of CPLEX run. Time: 6.07066 seconds

===== New CPLEX run =====
Instance: /home/yorig/tuner/mpils-tests/instances/miplib/easy/lotsize.mps
Config: /scratch/yorig/mpils-results-grid-ticks-10000/easy/16proc/seed-9/4_lotsize_seed-9_20260425_202405/iterated_local_search/run_2_worker_6/ils_config_9758399055305198706.prm
========================

Selected objective sense:  MINIMIZE
Selected objective  name:  R1921
Selected RHS        name:  B
Selected bound      name:  BOUND
Version identifier: 22.1.2.0 | 2024-11-26 | 0edbb82fd
CPXPARAM_Threads                                 8
CPXPARAM_Parallel                                1
CPXPARAM_MIP_Cuts_Cliques                        3
CPXPARAM_MIP_Strategy_VariableSelect             -1
CPXPARAM_MIP_Cuts_GUBCovers                      2
CPXPARAM_MIP_Limits_GomoryCand                   10
CPXPARAM_MIP_Cuts_Gomory                         1
CPXPARAM_MIP_Cuts_PathCut                        -1
CPXPARAM_MIP_Cuts_MIRCut                         -1
CPXPARAM_MIP_Cuts_Disjunctive                    3
CPXPARAM_Emphasis_MIP                            5
CPXPARAM_DetTimeLimit                            10000
Tried aggregator 1 time.
MIP Presolve eliminated 595 rows and 0 columns.
MIP Presolve added 1190 rows and 0 columns.
MIP Presolve modified 10 coefficients.
Reduced MIP has 2515 rows, 2985 columns, and 7755 nonzeros.
Reduced MIP has 1195 binaries, 0 generals, 0 SOSs, and 0 indicators.
Presolve time = 0.00 sec. (4.53 ticks)
Probing fixed 0 vars, tightened 5487 bounds.
Probing time = 0.01 sec. (18.38 ticks)
Tried aggregator 2 times.
Detecting symmetries...
MIP Presolve modified 1206 coefficients.
Aggregator did 10 substitutions.
Reduced MIP has 2505 rows, 2975 columns, and 7735 nonzeros.
Reduced MIP has 1195 binaries, 0 generals, 0 SOSs, and 0 indicators.
Presolve time = 0.01 sec. (6.66 ticks)
Probing fixed 0 vars, tightened 2401 bounds.
Probing time = 0.00 sec. (6.41 ticks)
Clique table members: 190.
MIP emphasis: heuristic.
MIP search method: dynamic search.
Parallel mode: deterministic, using up to 8 threads.
Root relaxation solution time = 0.01 sec. (9.71 ticks)

        Nodes                                         Cuts/
   Node  Left     Objective  IInf  Best Integer    Best Bound    ItCnt     Gap

      0     0   348385.3466   472                 348385.3466      882         
*     0+    0                       1.40386e+07   348385.3466            97.52%
*     0+    0                       1.01740e+07   348385.3466            96.58%
*     0+    0                      7973370.0000   348385.3466            95.63%
      0     0   543299.5756   507  7973370.0000     Cuts: 726     1930   93.19%
      0     0   805132.3460   575  7973370.0000     Cuts: 726     2847   89.90%
      0     0   923353.2605   596  7973370.0000     Cuts: 643     3430   88.42%
*     0+    0                      7834283.0000   923353.2605            88.21%
      0     0  -1.00000e+75     0  7834283.0000   923353.2605     3430   88.21%

GUB cover cuts applied:  0
Clique cuts applied:  0
Cover cuts applied:  12
Implied bound cuts applied:  21
Flow cuts applied:  626
Mixed integer rounding cuts applied:  314
Multi commodity flow cuts applied:  27
Gomory fractional cuts applied:  6
Disjunctive cuts applied:  40
Cone linearizations applied:  0

Root node processing (before b&c):
  Real time             =    7.33 sec. (10023.29 ticks)
Parallel b&c, 8 threads:
  Real time             =    0.00 sec. (0.00 ticks)
  Sync time (average)   =    0.00 sec.
  Wait time (average)   =    0.00 sec.
                          ------------
Total (root+branch&cut) =    7.33 sec. (10023.29 ticks)
Gap: 88.21%
Upper bound: 7.83428e+06
Lower bound: 923353
End of CPLEX run. Time: 7.33079 seconds

===== New CPLEX run =====
Instance: /home/yorig/tuner/mpils-tests/instances/miplib/easy/lotsize.mps
Config: /scratch/yorig/mpils-results-grid-ticks-10000/easy/16proc/seed-9/4_lotsize_seed-9_20260425_202405/iterated_local_search/run_2_worker_6/ils_config_2601282540313017396.prm
========================

Selected objective sense:  MINIMIZE
Selected objective  name:  R1921
Selected RHS        name:  B
Selected bound      name:  BOUND
Version identifier: 22.1.2.0 | 2024-11-26 | 0edbb82fd
CPXPARAM_Threads                                 8
CPXPARAM_Parallel                                1
CPXPARAM_MIP_Cuts_Cliques                        3
CPXPARAM_MIP_Strategy_VariableSelect             -1
CPXPARAM_MIP_Cuts_GUBCovers                      2
CPXPARAM_MIP_Limits_GomoryCand                   25
CPXPARAM_MIP_Cuts_Gomory                         1
CPXPARAM_MIP_Cuts_PathCut                        -1
CPXPARAM_MIP_Cuts_MIRCut                         -1
CPXPARAM_MIP_Cuts_Disjunctive                    -1
CPXPARAM_Emphasis_MIP                            5
CPXPARAM_DetTimeLimit                            10000
Tried aggregator 1 time.
MIP Presolve eliminated 595 rows and 0 columns.
MIP Presolve added 1190 rows and 0 columns.
MIP Presolve modified 10 coefficients.
Reduced MIP has 2515 rows, 2985 columns, and 7755 nonzeros.
Reduced MIP has 1195 binaries, 0 generals, 0 SOSs, and 0 indicators.
Presolve time = 0.00 sec. (4.53 ticks)
Probing fixed 0 vars, tightened 5487 bounds.
Probing time = 0.01 sec. (18.38 ticks)
Tried aggregator 2 times.
Detecting symmetries...
MIP Presolve modified 1206 coefficients.
Aggregator did 10 substitutions.
Reduced MIP has 2505 rows, 2975 columns, and 7735 nonzeros.
Reduced MIP has 1195 binaries, 0 generals, 0 SOSs, and 0 indicators.
Presolve time = 0.00 sec. (6.66 ticks)
Probing fixed 0 vars, tightened 2401 bounds.
Probing time = 0.00 sec. (6.41 ticks)
Clique table members: 190.
MIP emphasis: heuristic.
MIP search method: dynamic search.
Parallel mode: deterministic, using up to 8 threads.
Root relaxation solution time = 0.01 sec. (9.71 ticks)

        Nodes                                         Cuts/
   Node  Left     Objective  IInf  Best Integer    Best Bound    ItCnt     Gap

      0     0   348385.3466   472                 348385.3466      882         
*     0+    0                       1.40386e+07   348385.3466            97.52%
*     0+    0                       1.01740e+07   348385.3466            96.58%
*     0+    0                      7973370.0000   348385.3466            95.63%
      0     0   572993.6826   462  7973370.0000     Cuts: 726     1894   87.17%
      0     0   833558.5627   612  7973370.0000     Cuts: 726     2754   86.96%
      0     0  1034489.1952   639  7973370.0000     Cuts: 726     3529   86.77%
      0     0  1108863.6592   651  7973370.0000     Cuts: 726     4202   86.09%
      0     0  1126373.0977   647  7973370.0000     Cuts: 373     4571   85.87%
Detecting symmetries...
      0     0  1135446.8231   667  7973370.0000     Cuts: 243     4863   85.76%
      0     0  1141391.6777   660  7973370.0000     Cuts: 185     5082   85.68%
      0     0  1145020.3598   733  7973370.0000     Cuts: 257     5309   85.64%
      0     0  1147714.8883   712  7973370.0000     Cuts: 123     5489   85.61%
      0     0  1150893.1341   745  7973370.0000     Cuts: 148     5728   85.57%
      0     0  1154790.3417   732  7973370.0000     Cuts: 180     5924   85.52%
      0     0  1157312.4514   747  7973370.0000     Cuts: 122     6098   85.49%
      0     0  1158895.3693   776  7973370.0000     Cuts: 109     6208   85.47%
      0     0  1161075.8090   784  7973370.0000     Cuts: 148     6335   85.44%
      0     0  1162524.5745   769  7973370.0000     Cuts: 101     6437   85.42%
      0     0  1163599.5543   778  7973370.0000     Cuts: 132     6569   85.41%
      0     0  1164274.6132   799  7973370.0000      Cuts: 65     6683   85.40%
      0     0  1165012.4629   792  7973370.0000      Cuts: 91     6785   85.39%
      0     0  1165636.7872   788  7973370.0000      Cuts: 38     6851   85.38%
      0     0  1166014.6532   793  7973370.0000      Cuts: 80     6915   85.38%
      0     0  1166461.7687   786  7973370.0000      Cuts: 28     6976   85.37%
      0     0  1166898.4678   791  7973370.0000      Cuts: 41     7068   85.37%
      0     0  1167481.6530   803  7973370.0000      Cuts: 31     7151   85.36%
      0     0  1167712.7635   793  7973370.0000      Cuts: 28     7198   85.35%
      0     0  1168254.8104   802  7973370.0000      Cuts: 31     7265   85.35%
      0     0  1168420.0761   815  7973370.0000      Cuts: 16     7305   85.35%
*     0+    0                      3023611.0000  1168420.0761            61.36%
*     0+    0                      2865427.0000  1168420.0761            59.22%
*     0+    0                      2793152.0000  1168420.0761            58.17%
*     0+    0                      2785578.0000  1168420.0761            58.05%
      0     0  -1.00000e+75     0  2785578.0000  1168420.0761     7305   58.05%
*     0+    0                      2674492.0000  1168420.0761            56.31%
*     0+    0                      2631078.0000  1168420.0761            55.59%
*     0+    0                      2557187.0000  1168420.0761            54.31%
*     0+    0                      2360887.0000  1168420.0761            50.51%
*     0+    0                      2312232.0000  1168420.0761            49.47%
*     0+    0                      2305642.0000  1168420.0761            49.32%
*     0+    0                      2196158.0000  1168420.0761            46.80%
*     0+    0                      2106879.0000  1168420.0761            44.54%
*     0+    0                      2042630.0000  1168420.0761            42.80%
*     0+    0                      1982512.0000  1168420.0761            41.06%
      0     0  -1.00000e+75     0  1982512.0000  1168420.0761     7305   41.06%

GUB cover cuts applied:  0
Clique cuts applied:  1
Cover cuts applied:  20
Implied bound cuts applied:  24
Flow cuts applied:  886
Mixed integer rounding cuts applied:  509
Multi commodity flow cuts applied:  70
Gomory fractional cuts applied:  1

Root node processing (before b&c):
  Real time             =    6.07 sec. (10010.58 ticks)
Parallel b&c, 8 threads:
  Real time             =    0.00 sec. (0.00 ticks)
  Sync time (average)   =    0.00 sec.
  Wait time (average)   =    0.00 sec.
                          ------------
Total (root+branch&cut) =    6.07 sec. (10010.58 ticks)
Gap: 41.06%
Upper bound: 1.98251e+06
Lower bound: 1.16842e+06
End of CPLEX run. Time: 6.07562 seconds
